projected/problems_b25_r0_d7_m100_s666/_DIMACS/b25_d7_r0_s666_087.cnf
p cnf 222 373 25
c p show 1 2 3 4 5 6 7 8 9 10 11 12 13 14 15 16 17 18 19 20 21 22 23 24 25
-170 -12 -19 0
-171 19 0
-171 9 0
-172 171 170 0
-173 19 0
-173 24 0
-174 21 0
-174 -22 0
-175 174 173 0
-176 175 0
-176 172 0
-177 3 21 0
-178 -19 7 0
-179 178 177 0
-180 -19 0
-180 24 0
-181 22 18 0
-182 181 180 0
-183 182 0
-183 179 0
-184 183 0
-184 176 0
-185 -23 -21 0
-186 -12 -1 0
-187 186 185 0
-188 -17 0
-188 -25 0
-189 21 11 0
-190 189 0
-190 188 0
-191 190 187 0
-192 16 0
-192 -13 0
-193 4 0
-193 -23 0
-194 193 192 0
-195 -25 0
-195 21 0
-196 -16 -6 0
-197 196 195 0
-198 16 0
-198 6 0
-199 25 -21 0
-200 199 198 0
-201 200 0
-201 197 0
-202 201 0
-202 194 0
-203 202 191 0
-204 203 0
-204 184 0
-205 23 0
-205 21 0
-206 12 0
-206 1 0
-207 206 0
-207 205 0
-208 17 25 0
-209 -21 0
-209 -11 0
-210 209 208 0
-211 210 0
-211 207 0
-212 -16 13 0
-213 -4 23 0
-214 213 0
-214 212 0
-215 198 0
-215 199 0
-216 195 0
-216 196 0
-217 216 215 0
-218 217 214 0
-219 218 0
-219 211 0
-220 12 0
-220 19 0
-221 -19 -9 0
-222 221 0
-222 220 0
-26 -19 -24 0
-27 -21 22 0
-28 27 0
-28 26 0
-29 28 222 0
-30 -3 0
-30 -21 0
-31 19 0
-31 -7 0
-32 31 0
-32 30 0
-33 19 -24 0
-100 -22 0
-100 -18 0
-34 100 0
-34 33 0
-35 34 32 0
-36 35 29 0
-37 36 0
-37 219 0
-38 37 204 0
-39 -16 2 0
-40 14 0
-40 -3 0
-41 40 0
-41 39 0
-42 -15 -1 0
-43 6 0
-43 -4 0
-44 43 42 0
-45 44 41 0
-46 -22 -4 0
-47 5 0
-47 -4 0
-48 47 46 0
-49 13 -22 0
-50 18 -6 0
-51 50 49 0
-52 51 0
-52 48 0
-53 52 45 0
-54 22 0
-54 4 0
-55 -5 4 0
-56 55 0
-56 54 0
-57 -13 0
-57 22 0
-58 -18 0
-58 6 0
-59 58 0
-59 57 0
-60 59 56 0
-61 16 0
-61 -2 0
-62 -14 3 0
-63 62 61 0
-64 15 0
-64 1 0
-65 -6 4 0
-66 65 0
-66 64 0
-67 66 0
-67 63 0
-68 67 60 0
-69 68 0
-69 53 0
-70 -4 -13 0
-71 22 -2 0
-72 71 0
-72 70 0
-73 -22 0
-73 2 0
-74 4 0
-74 13 0
-75 74 0
-75 73 0
-76 75 72 0
-77 -10 0
-77 -4 0
-78 77 195 0
-79 78 0
-79 76 0
-80 22 -18 0
-81 12 0
-81 17 0
-82 81 80 0
-83 -23 2 0
-84 2 0
-84 12 0
-85 84 83 0
-86 85 0
-86 82 0
-87 86 79 0
-88 87 69 0
-89 88 0
-89 38 0
-90 -18 0
-90 -24 0
-91 -4 0
-91 12 0
-92 91 0
-92 90 0
-93 -9 0
-94 21 0
-94 7 0
-95 94 0
-95 93 0
-96 95 0
-96 92 0
-97 21 0
-97 20 0
-98 -5 12 0
-99 98 97 0
-101 12 25 0
-102 -5 0
-102 12 0
-103 102 0
-103 101 0
-104 103 99 0
-105 104 96 0
-106 -24 20 0
-107 18 -15 0
-108 107 106 0
-109 2 4 0
-110 9 -9 0
-111 110 0
-111 109 0
-112 111 0
-112 108 0
-113 8 0
-113 -2 0
-114 -25 -8 0
-115 114 113 0
-116 -2 0
-116 7 0
-117 -3 0
-117 -18 0
-118 117 0
-118 116 0
-119 118 0
-119 115 0
-120 119 112 0
-121 120 105 0
-122 9 17 0
-123 19 -19 0
-124 123 122 0
-125 -17 0
-125 -9 0
-126 9 0
-126 17 0
-127 126 125 0
-128 10 0
-128 22 0
-129 128 0
-129 127 0
-130 129 0
-130 124 0
-131 20 11 0
-132 21 -13 0
-133 132 131 0
-134 4 -23 0
-135 23 -4 0
-136 135 0
-136 134 0
-137 10 22 0
-138 137 0
-138 136 0
-139 138 133 0
-140 139 130 0
-141 13 24 0
-142 141 198 0
-143 1 2 0
-144 20 0
-144 -24 0
-145 144 143 0
-146 -20 24 0
-147 -1 0
-147 -2 0
-148 147 146 0
-149 148 0
-149 145 0
-150 149 142 0
-151 146 0
-151 147 0
-152 143 0
-152 144 0
-153 152 151 0
-154 -13 0
-154 -24 0
-155 154 0
-155 196 0
-156 155 153 0
-157 156 0
-157 150 0
-158 17 0
-158 22 0
-159 -21 -19 0
-160 159 158 0
-161 -3 0
-161 -16 0
-162 16 0
-162 3 0
-163 162 161 0
-164 -13 0
-164 -20 0
-165 164 0
-165 163 0
-166 165 160 0
-167 166 157 0
-168 167 140 0
-169 168 0
-169 121 0
169 89 0
-205 -185 0
-186 -206 0
-206 -186 0
-207 -187 0
-188 -208 0
-208 -188 0
-209 -189 0
-210 -190 0
-211 -191 0
-191 -211 0
-192 -212 0
-212 -192 0
-213 -193 0
-214 -194 0
-194 -214 0
-198 -196 0
-195 -199 0
-201 -217 0
-202 -218 0
-203 -219 0
-170 -220 0
-221 -171 0
-171 -221 0
-172 -222 0
-222 -172 0
-26 -173 0
-173 -26 0
-27 -174 0
-174 -27 0
-175 -28 0
-28 -175 0
-29 -176 0
-176 -29 0
-177 -30 0
-178 -31 0
-179 -32 0
-32 -179 0
-33 -180 0
-180 -33 0
-181 -100 0
-182 -34 0
-34 -182 0
-35 -183 0
-183 -35 0
-184 -36 0
-36 -184 0
-46 -54 0
-47 -55 0
-48 -56 0
-56 -48 0
-57 -49 0
-49 -57 0
-50 -58 0
-51 -59 0
-59 -51 0
-60 -52 0
-39 -61 0
-61 -39 0
-62 -40 0
-63 -41 0
-42 -64 0
-64 -42 0
-43 -65 0
-65 -43 0
-66 -44 0
-67 -45 0
-45 -67 0
-71 -73 0
-74 -70 0
-144 -146 0
-146 -144 0
-147 -143 0
-143 -147 0
-149 -153 0
-153 -149 0
-196 -198 0
-154 -141 0
-155 -142 0
-142 -155 0
