projected/problems_b25_r0_d7_m100_s666/b25_d7_r0_s666_087.smt2
(set-logic QF_UF)
(declare-fun A0 () Bool)
(declare-fun A1 () Bool)
(declare-fun A2 () Bool)
(declare-fun A3 () Bool)
(declare-fun A4 () Bool)
(declare-fun A5 () Bool)
(declare-fun A6 () Bool)
(declare-fun A7 () Bool)
(declare-fun A8 () Bool)
(declare-fun A9 () Bool)
(declare-fun A10 () Bool)
(declare-fun A11 () Bool)
(declare-fun A12 () Bool)
(declare-fun A13 () Bool)
(declare-fun A14 () Bool)
(declare-fun A15 () Bool)
(declare-fun A16 () Bool)
(declare-fun A17 () Bool)
(declare-fun A18 () Bool)
(declare-fun A19 () Bool)
(declare-fun A20 () Bool)
(declare-fun A21 () Bool)
(declare-fun A22 () Bool)
(declare-fun A23 () Bool)
(declare-fun A24 () Bool)
(assert (let ((.def_0 (and A22 A20))) (let ((.def_1 (not A0))) (let ((.def_2 (not A11))) (let ((.def_3 (or .def_2 .def_1))) (let ((.def_4 (not .def_3))) (let ((.def_5 (and .def_4 .def_0))) (let ((.def_6 (not A24))) (let ((.def_7 (not A16))) (let ((.def_8 (and .def_7 .def_6))) (let ((.def_9 (not .def_8))) (let ((.def_10 (not A10))) (let ((.def_11 (not A20))) (let ((.def_12 (and .def_11 .def_10))) (let ((.def_13 (or .def_12 .def_9))) (let ((.def_14 (and .def_13 .def_5))) (let ((.def_15 (not .def_14))) (let ((.def_16 (not A12))) (let ((.def_17 (and A15 .def_16))) (let ((.def_18 (not .def_17))) (let ((.def_19 (not A3))) (let ((.def_20 (or .def_19 A22))) (let ((.def_21 (and .def_20 .def_18))) (let ((.def_22 (not .def_21))) (let ((.def_23 (and A15 A5))) (let ((.def_24 (and .def_6 A20))) (let ((.def_25 (= .def_24 .def_23))) (let ((.def_26 (and .def_25 .def_22))) (let ((.def_27 (or .def_26 .def_15))) (let ((.def_28 (not A18))) (let ((.def_29 (or .def_2 .def_28))) (let ((.def_30 (not A8))) (let ((.def_31 (or .def_28 .def_30))) (let ((.def_32 (not .def_31))) (let ((.def_33 (or .def_32 .def_29))) (let ((.def_34 (not .def_33))) (let ((.def_35 (not A23))) (let ((.def_36 (or .def_28 .def_35))) (let ((.def_37 (not .def_36))) (let ((.def_38 (or .def_11 A21))) (let ((.def_39 (not .def_38))) (let ((.def_40 (or .def_39 .def_37))) (let ((.def_41 (not .def_40))) (let ((.def_42 (or .def_41 .def_34))) (let ((.def_43 (not .def_42))) (let ((.def_44 (or A2 A20))) (let ((.def_45 (or .def_28 A6))) (let ((.def_46 (or .def_45 .def_44))) (let ((.def_47 (not .def_46))) (let ((.def_48 (or A18 .def_35))) (let ((.def_49 (not .def_48))) (let ((.def_50 (or A21 A17))) (let ((.def_51 (or .def_50 .def_49))) (let ((.def_52 (not .def_51))) (let ((.def_53 (or .def_52 .def_47))) (let ((.def_54 (not .def_53))) (let ((.def_55 (and .def_54 .def_43))) (let ((.def_56 (not .def_55))) (let ((.def_57 (= .def_56 .def_27))) (let ((.def_58 (not .def_57))) (let ((.def_59 (not A21))) (let ((.def_60 (or .def_59 .def_19))) (let ((.def_61 (and A4 .def_19))) (let ((.def_62 (or .def_61 .def_60))) (let ((.def_63 (not .def_62))) (let ((.def_64 (and .def_16 A21))) (let ((.def_65 (not .def_64))) (let ((.def_66 (not A5))) (let ((.def_67 (or A17 .def_66))) (let ((.def_68 (or .def_67 .def_65))) (let ((.def_69 (not .def_68))) (let ((.def_70 (or .def_69 .def_63))) (let ((.def_71 (not A15))) (let ((.def_72 (or .def_71 A1))) (let ((.def_73 (not .def_72))) (let ((.def_74 (not A13))) (let ((.def_75 (or .def_74 A2))) (let ((.def_76 (or .def_75 .def_73))) (let ((.def_77 (not A14))) (let ((.def_78 (or .def_77 .def_1))) (let ((.def_79 (not .def_78))) (let ((.def_80 (and A5 .def_19))) (let ((.def_81 (not .def_80))) (let ((.def_82 (and .def_81 .def_79))) (let ((.def_83 (and .def_82 .def_76))) (let ((.def_84 (not .def_83))) (let ((.def_85 (= .def_84 .def_70))) (let ((.def_86 (not .def_85))) (let ((.def_87 (not A1))) (let ((.def_88 (or A21 .def_87))) (let ((.def_89 (and A3 A12))) (let ((.def_90 (= .def_89 .def_88))) (let ((.def_91 (not .def_90))) (let ((.def_92 (or A24 .def_11))) (let ((.def_93 (not .def_92))) (let ((.def_94 (or A9 A3))) (let ((.def_95 (not .def_94))) (let ((.def_96 (or .def_95 .def_93))) (let ((.def_97 (and .def_96 .def_91))) (let ((.def_98 (not A17))) (let ((.def_99 (or A21 .def_98))) (let ((.def_100 (or .def_2 .def_7))) (let ((.def_101 (not .def_100))) (let ((.def_102 (or .def_101 .def_99))) (let ((.def_103 (not .def_102))) (let ((.def_104 (not A22))) (let ((.def_105 (or .def_104 A1))) (let ((.def_106 (not .def_105))) (let ((.def_107 (and A1 A11))) (let ((.def_108 (not .def_107))) (let ((.def_109 (and .def_108 .def_106))) (let ((.def_110 (or .def_109 .def_103))) (let ((.def_111 (not .def_110))) (let ((.def_112 (or .def_111 .def_97))) (let ((.def_113 (not .def_112))) (let ((.def_114 (and .def_113 .def_86))) (let ((.def_115 (not .def_114))) (let ((.def_116 (and .def_115 .def_58))) (let ((.def_117 (and .def_98 .def_35))) (let ((.def_118 (not .def_117))) (let ((.def_119 (and .def_19 A11))) (let ((.def_120 (not .def_119))) (let ((.def_121 (or .def_120 .def_118))) (let ((.def_122 (or A8 A8))) (let ((.def_123 (and A20 A6))) (let ((.def_124 (not .def_123))) (let ((.def_125 (or .def_124 .def_122))) (let ((.def_126 (or .def_125 .def_121))) (let ((.def_127 (not .def_126))) (let ((.def_128 (not A19))) (let ((.def_129 (or .def_11 .def_128))) (let ((.def_130 (not A4))) (let ((.def_131 (or .def_130 A11))) (let ((.def_132 (not .def_131))) (let ((.def_133 (and .def_132 .def_129))) (let ((.def_134 (and .def_2 .def_6))) (let ((.def_135 (not .def_134))) (let ((.def_136 (or A4 .def_2))) (let ((.def_137 (not .def_136))) (let ((.def_138 (and .def_137 .def_135))) (let ((.def_139 (not .def_138))) (let ((.def_140 (and .def_139 .def_133))) (let ((.def_141 (not .def_140))) (let ((.def_142 (or .def_141 .def_127))) (let ((.def_143 (and A23 .def_128))) (let ((.def_144 (and .def_98 A14))) (let ((.def_145 (and .def_144 .def_143))) (let ((.def_146 (not .def_145))) (let ((.def_147 (or A1 A3))) (let ((.def_148 (not .def_147))) (let ((.def_149 (or A8 .def_30))) (let ((.def_150 (not .def_149))) (let ((.def_151 (or .def_150 .def_148))) (let ((.def_152 (not .def_151))) (let ((.def_153 (and .def_152 .def_146))) (let ((.def_154 (and A7 .def_87))) (let ((.def_155 (and A24 A7))) (let ((.def_156 (not .def_155))) (let ((.def_157 (or .def_156 .def_154))) (let ((.def_158 (not A6))) (let ((.def_159 (or A1 .def_158))) (let ((.def_160 (not A2))) (let ((.def_161 (and .def_160 .def_98))) (let ((.def_162 (not .def_161))) (let ((.def_163 (or .def_162 .def_159))) (let ((.def_164 (not .def_163))) (let ((.def_165 (and .def_164 .def_157))) (let ((.def_166 (or .def_165 .def_153))) (let ((.def_167 (or .def_166 .def_142))) (let ((.def_168 (and .def_30 .def_7))) (let ((.def_169 (not .def_168))) (let ((.def_170 (and .def_28 A18))) (let ((.def_171 (not .def_170))) (let ((.def_172 (or .def_171 .def_169))) (let ((.def_173 (= A8 .def_7))) (let ((.def_174 (not .def_173))) (let ((.def_175 (and A9 A21))) (let ((.def_176 (and .def_175 .def_174))) (let ((.def_177 (and .def_176 .def_172))) (let ((.def_178 (or A19 A10))) (let ((.def_179 (or A20 .def_16))) (let ((.def_180 (or .def_179 .def_178))) (let ((.def_181 (not .def_180))) (let ((.def_182 (= .def_104 .def_19))) (let ((.def_183 (or A9 A21))) (let ((.def_184 (and .def_183 .def_182))) (let ((.def_185 (not .def_184))) (let ((.def_186 (and .def_185 .def_181))) (let ((.def_187 (not .def_186))) (let ((.def_188 (or .def_187 .def_177))) (let ((.def_189 (not .def_188))) (let ((.def_190 (and A19 .def_35))) (let ((.def_191 (not .def_190))) (let ((.def_192 (and .def_1 .def_87))) (let ((.def_193 (not .def_192))) (let ((.def_194 (= .def_193 .def_191))) (let ((.def_195 (not .def_194))) (let ((.def_196 (or .def_71 .def_66))) (let ((.def_197 (and .def_16 .def_35))) (let ((.def_198 (and .def_197 .def_196))) (let ((.def_199 (not .def_198))) (let ((.def_200 (= .def_199 .def_195))) (let ((.def_201 (not .def_200))) (let ((.def_202 (or .def_7 .def_59))) (let ((.def_203 (not .def_202))) (let ((.def_204 (and A20 A18))) (let ((.def_205 (not .def_204))) (let ((.def_206 (or .def_205 .def_203))) (let ((.def_207 (= A15 .def_160))) (let ((.def_208 (not .def_207))) (let ((.def_209 (and .def_16 .def_128))) (let ((.def_210 (and .def_209 .def_208))) (let ((.def_211 (or .def_210 .def_206))) (let ((.def_212 (not .def_211))) (let ((.def_213 (and .def_212 .def_201))) (let ((.def_214 (and .def_213 .def_189))) (let ((.def_215 (not .def_214))) (let ((.def_216 (and .def_215 .def_167))) (let ((.def_217 (or .def_216 .def_116))) .def_217)))))))))))))))))))))))))))))))))))))))))))))))))))))))))))))))))))))))))))))))))))))))))))))))))))))))))))))))))))))))))))))))))))))))))))))))))))))))))))))))))))))))))))))))))))))))))))))))))))))))))))))))))))))))))))
(check-sat)
